#######################################
### Exact MIP solver for the HHCRSP ###
#######################################
-- Instance file: new-instances/HHCRSP_25_5_46_1.6_C_RC.txt
-- Max threads: 4
-- Time limit: 999999 seconds
-- Use initial solution: No
Trivial flow violations prevented generating 919 variables.
Model exported.
Version identifier: 20.1.0.0 | 2020-11-10 | 9bedb6d68
CPXPARAM_Threads                                 4
CPXPARAM_TimeLimit                               999999
Tried aggregator 1 time.
LP Presolve eliminated 468 rows and 166 columns.
Reduced LP has 1470 rows, 1423 columns, and 10462 nonzeros.
Presolve time = 0.01 sec. (3.28 ticks)
Symmetry aggregator did 664 additional substitutions.

Iteration log . . .
Iteration:     1   Dual objective     =             0.000000

Dual crossover.
  Dual:  Fixing 22 variables.
       21 DMoves:  Infeasibility  9.54794173e-15  Objective  8.03353267e+01
        0 DMoves:  Infeasibility  2.44251437e-15  Objective  8.03353267e+01
  Dual:  Pushed 2, exchanged 20.
  Primal:  Fixing 9 variables.
        8 PMoves:  Infeasibility  0.00000000e+00  Objective  8.03353267e+01
        0 PMoves:  Infeasibility  0.00000000e+00  Objective  8.03353267e+01
  Primal:  Pushed 2, exchanged 7.

Solution status from MIP model:
-- Processing time: 0.01 sec.
-- Memory used: 15.1016 MB
-- Best bound: inf
-- Obj value: 80.3353
-- Gap: inf%
-- Total distance: 241.006
-- Total tardiness: 0
-- Largest tardiness: 0
